% demand
num_movements = 21;
loading_factor = [1050, 1150, 800, 1300, 2000, 1350, 1800, 1000, 1750, 1150, 1600, 1000, 950, 1150, 1950, 1000, 2000, 1200, 1150, 1500, 1400];
pickup_time = [0, 0, 0, 0, 0, 2, 3, 3, 3, 4, 5, 5, 5, 7, 7, 7, 8, 8, 9, 10, 10];
delivery_time = [2, 1, 2, 3, 2, 4, 4, 7, 4, 5, 6, 7, 7, 8, 9, 10, 11, 11, 10, 11, 11];

% transporter definition
total_capacity = 7000;
num_decks = 3;
capacity = [3000, 1000, 3000];

% ways out of decks
num_ways_out = 1;
paths_out = array3d(decks, ways_out, decks, [
% ways out of deck d1
2, 3, 0, 

% ways out of deck d2
3, 0, 0, 

% ways out of deck d3
0, 0, 0,	

]);

